10012
10025
10037
10065
10003
10076
10038
10019
10053
10020
10055
10008
10043
10062
10061
10064
10047
10059
10031
10080
10023
10032
10004
10041
10051
10079
10011
10073
10075
10018
10026
10057
10077
10070
10058
10030
10024
10069
10072
10074
10009
10022
10006
10068
10060
10005
10013
10036
10067
10052
10071
10048
10015
10049
10007
10021
10042
10034
10001
10044
10045
10046
10081
10040
10066
10063
10078
10010
